(set-logic QF_S)
(declare-fun var0 () String)
(assert (str.in.re var0 (re.++ (re.+ (re.+ (str.to.re "0"))) (re.++ (re.+ (re.+ (str.to.re "111"))) (re.++ (re.+ (re.+ (str.to.re "222"))) (re.++ (re.+ (re.+ (str.to.re "33"))) (re.++ (re.union (re.+ (str.to.re "4")) (re.union (str.to.re "55") (str.to.re "666"))) (re.++ (re.* (re.+ (str.to.re "77"))) (re.++ (re.+ (re.* (str.to.re "888"))) (re.++ (re.+ (re.union (str.to.re "999") (str.to.re "aaa"))) (re.++ (re.* (re.union (str.to.re "b") (str.to.re "c"))) (re.++ (re.+ (re.* (str.to.re "d"))) (re.++ (re.union (re.+ (str.to.re "ee")) (re.+ (str.to.re "ff"))) (re.++ (re.+ (re.* (str.to.re "gg"))) (re.++ (re.union (re.union (str.to.re "hhh") (str.to.re "i")) (re.union (str.to.re "jj") (str.to.re "kkk"))) (re.++ (re.+ (re.* (str.to.re "lll"))) (re.++ (re.* (re.union (str.to.re "mm") (str.to.re "nn"))) (re.++ (re.union (re.* (str.to.re "oo")) (re.union (str.to.re "p") (str.to.re "qq"))) (re.++ (re.* (re.+ (str.to.re "rrr"))) (re.++ (re.+ (re.* (str.to.re "sss"))) (re.++ (re.union (re.* (str.to.re "tt")) (re.* (str.to.re "uu"))) (re.++ (re.* (re.* (str.to.re "v"))) (re.++ (re.* (re.union (str.to.re "w") (str.to.re "xx"))) (re.++ (re.* (re.* (str.to.re "yyy"))) (re.++ (re.union (re.* (str.to.re "zzz")) (re.* (str.to.re "A"))) (re.++ (re.+ (re.* (str.to.re "B"))) (re.++ (re.+ (re.union (str.to.re "CC") (str.to.re "DD"))) (re.++ (re.union (re.+ (str.to.re "EEE")) (re.* (str.to.re "F"))) (re.++ (re.+ (re.* (str.to.re "G"))) (re.++ (re.* (re.* (str.to.re "HH"))) (re.++ (re.* (re.* (str.to.re "I"))) (re.++ (re.union (re.* (str.to.re "J")) (re.* (str.to.re "K"))) (re.++ (re.* (re.* (str.to.re "LLL"))) (re.++ (re.union (re.+ (str.to.re "M")) (re.union (str.to.re "NN") (str.to.re "OOO"))) (re.++ (re.* (re.+ (str.to.re "PPP"))) (re.++ (re.+ (re.+ (str.to.re "Q"))) (re.++ (re.union (re.union (str.to.re "R") (str.to.re "SSS")) (re.union (str.to.re "T") (str.to.re "UUU"))) (re.++ (re.+ (re.* (str.to.re "V"))) (re.++ (re.union (re.* (str.to.re "W")) (re.* (str.to.re "X"))) (re.++ (re.* (re.+ (str.to.re "Y"))) (re.++ (re.* (re.union (str.to.re "ZZ") (str.to.re "!!"))) (re.++ (re.union (re.* (str.to.re """")) (re.* (str.to.re "###"))) (re.++ (re.* (re.* (str.to.re "$$"))) (re.++ (re.union (re.+ (str.to.re "%%")) (re.+ (str.to.re "&&"))) (re.++ (re.* (re.+ (str.to.re "'''"))) (re.++ (re.union (re.+ (str.to.re "(")) (re.union (str.to.re ")))") (str.to.re "**"))) (re.++ (re.* (re.+ (str.to.re "+++"))) (re.++ (re.+ (re.* (str.to.re ","))) (re.++ (re.* (re.+ (str.to.re "-"))) (re.++ (re.* (re.+ (str.to.re "."))) (re.++ (re.+ (re.* (str.to.re "///"))) (re.++ (re.+ (re.union (str.to.re ":") (str.to.re ";"))) (re.++ (re.union (re.+ (str.to.re "<<")) (re.* (str.to.re "==="))) (re.++ (re.+ (re.+ (str.to.re ">"))) (re.++ (re.+ (re.union (str.to.re "???") (str.to.re "@"))) (re.++ (re.+ (re.* (str.to.re "["))) (re.++ (re.union (re.union (str.to.re "\\") (str.to.re "]]]")) (re.+ (str.to.re "^^"))) (re.++ (re.* (re.+ (str.to.re "_"))) (re.++ (re.+ (re.union (str.to.re "`") (str.to.re "{{"))) (re.++ (re.* (re.+ (str.to.re "||"))) (re.++ (re.* (re.union (str.to.re "}") (str.to.re "~~"))) (re.++ (re.+ (re.+ (str.to.re "00"))) (re.++ (re.union (re.+ (str.to.re "11")) (re.* (str.to.re "222"))) (re.++ (re.union (re.+ (str.to.re "3")) (re.* (str.to.re "444"))) (re.++ (re.union (re.* (str.to.re "5")) (re.+ (str.to.re "6"))) (re.++ (re.union (re.+ (str.to.re "77")) (re.* (str.to.re "888"))) (re.++ (re.union (re.* (str.to.re "9")) (re.* (str.to.re "aaa"))) (re.++ (re.+ (re.union (str.to.re "b") (str.to.re "cc"))) (re.++ (re.* (re.union (str.to.re "d") (str.to.re "ee"))) (re.++ (re.union (re.* (str.to.re "ff")) (re.+ (str.to.re "g"))) (re.++ (re.* (re.+ (str.to.re "hhh"))) (re.++ (re.+ (re.+ (str.to.re "ii"))) (re.++ (re.* (re.union (str.to.re "jjj") (str.to.re "k"))) (re.++ (re.union (re.* (str.to.re "lll")) (re.+ (str.to.re "mmm"))) (re.++ (re.* (re.* (str.to.re "n"))) (re.++ (re.union (re.union (str.to.re "o") (str.to.re "pp")) (re.+ (str.to.re "q"))) (re.++ (re.union (re.+ (str.to.re "r")) (re.* (str.to.re "s"))) (re.++ (re.+ (re.union (str.to.re "tt") (str.to.re "uuu"))) (re.++ (re.union (re.union (str.to.re "vv") (str.to.re "w")) (re.union (str.to.re "x") (str.to.re "y"))) (re.++ (re.union (re.* (str.to.re "zzz")) (re.union (str.to.re "AA") (str.to.re "BB"))) (re.++ (re.union (re.union (str.to.re "CCC") (str.to.re "D")) (re.* (str.to.re "E"))) (re.++ (re.* (re.union (str.to.re "FF") (str.to.re "G"))) (re.++ (re.+ (re.union (str.to.re "HHH") (str.to.re "I"))) (re.++ (re.union (re.* (str.to.re "J")) (re.+ (str.to.re "K"))) (re.++ (re.+ (re.* (str.to.re "LLL"))) (re.++ (re.+ (re.+ (str.to.re "MMM"))) (re.++ (re.union (re.+ (str.to.re "NN")) (re.union (str.to.re "OO") (str.to.re "P"))) (re.++ (re.* (re.union (str.to.re "Q") (str.to.re "R"))) (re.++ (re.+ (re.* (str.to.re "SSS"))) (re.++ (re.+ (re.* (str.to.re "TT"))) (re.++ (re.+ (re.* (str.to.re "UUU"))) (re.++ (re.* (re.* (str.to.re "VV"))) (re.++ (re.+ (re.union (str.to.re "W") (str.to.re "X"))) (re.++ (re.+ (re.union (str.to.re "YYY") (str.to.re "ZZ"))) (re.++ (re.* (re.union (str.to.re "!!!") (str.to.re """"""""))) (re.++ (re.union (re.union (str.to.re "#") (str.to.re "$$$")) (re.union (str.to.re "%") (str.to.re "&"))) (re.++ (re.union (re.+ (str.to.re "''")) (re.union (str.to.re "((") (str.to.re "))"))) (re.++ (re.+ (re.* (str.to.re "*"))) (re.++ (re.union (re.* (str.to.re "+")) (re.union (str.to.re ",,") (str.to.re "--"))) (re.++ (re.+ (re.+ (str.to.re "."))) (re.++ (re.+ (re.* (str.to.re "///"))) (re.++ (re.* (re.+ (str.to.re "::"))) (re.++ (re.union (re.union (str.to.re ";;") (str.to.re "<")) (re.union (str.to.re "=") (str.to.re ">>>"))) (re.++ (re.union (re.union (str.to.re "???") (str.to.re "@")) (re.* (str.to.re "["))) (re.++ (re.+ (re.+ (str.to.re "\\\\"))) (re.++ (re.union (re.+ (str.to.re "]")) (re.+ (str.to.re "^^^"))) (re.++ (re.+ (re.union (str.to.re "_") (str.to.re "`"))) (re.++ (re.* (re.+ (str.to.re "{{"))) (re.++ (re.union (re.union (str.to.re "|||") (str.to.re "}")) (re.* (str.to.re "~"))) (re.++ (re.* (re.* (str.to.re "000"))) (re.++ (re.+ (re.* (str.to.re "111"))) (re.++ (re.* (re.union (str.to.re "222") (str.to.re "333"))) (re.++ (re.+ (re.union (str.to.re "4") (str.to.re "55"))) (re.++ (re.union (re.+ (str.to.re "6")) (re.* (str.to.re "777"))) (re.++ (re.* (re.* (str.to.re "888"))) (re.++ (re.union (re.+ (str.to.re "9")) (re.+ (str.to.re "aaa"))) (re.++ (re.union (re.* (str.to.re "b")) (re.union (str.to.re "ccc") (str.to.re "dd"))) (re.++ (re.+ (re.union (str.to.re "eee") (str.to.re "ff"))) (re.++ (re.* (re.* (str.to.re "ggg"))) (re.++ (re.union (re.* (str.to.re "hh")) (re.union (str.to.re "iii") (str.to.re "jjj"))) (re.++ (re.+ (re.union (str.to.re "kk") (str.to.re "ll"))) (re.++ (re.* (re.* (str.to.re "mmm"))) (re.++ (re.union (re.union (str.to.re "n") (str.to.re "ooo")) (re.+ (str.to.re "ppp"))) (re.++ (re.union (re.+ (str.to.re "qqq")) (re.+ (str.to.re "rrr"))) (re.++ (re.+ (re.+ (str.to.re "sss"))) (re.++ (re.+ (re.union (str.to.re "tt") (str.to.re "uu"))) (re.++ (re.* (re.+ (str.to.re "v"))) (re.++ (re.* (re.* (str.to.re "ww"))) (re.++ (re.+ (re.+ (str.to.re "xx"))) (re.++ (re.* (re.union (str.to.re "yy") (str.to.re "zzz"))) (re.++ (re.union (re.+ (str.to.re "A")) (re.+ (str.to.re "BBB"))) (re.++ (re.union (re.+ (str.to.re "CCC")) (re.* (str.to.re "DDD"))) (re.++ (re.+ (re.+ (str.to.re "EEE"))) (re.++ (re.+ (re.+ (str.to.re "FFF"))) (re.++ (re.* (re.* (str.to.re "G"))) (re.++ (re.* (re.+ (str.to.re "HH"))) (re.++ (re.union (re.+ (str.to.re "III")) (re.* (str.to.re "JJJ"))) (re.++ (re.* (re.* (str.to.re "KKK"))) (re.++ (re.+ (re.+ (str.to.re "LLL"))) (re.++ (re.+ (re.+ (str.to.re "M"))) (re.++ (re.* (re.* (str.to.re "N"))) (re.++ (re.* (re.* (str.to.re "O"))) (re.++ (re.union (re.+ (str.to.re "P")) (re.+ (str.to.re "QQQ"))) (re.++ (re.+ (re.* (str.to.re "RR"))) (re.++ (re.union (re.union (str.to.re "SS") (str.to.re "TT")) (re.+ (str.to.re "UUU"))) (re.++ (re.+ (re.+ (str.to.re "V"))) (re.++ (re.+ (re.* (str.to.re "WWW"))) (re.++ (re.* (re.union (str.to.re "XX") (str.to.re "YYY"))) (re.++ (re.+ (re.union (str.to.re "ZZZ") (str.to.re "!!"))) (re.+ (re.+ (str.to.re """"))))))))))))))))))))))))))))))))))))))))))))))))))))))))))))))))))))))))))))))))))))))))))))))))))))))))))))))))))))))))))))))))))))))))))))))))))))))))
(check-sat)